\ Shard Replica Assignment

Minimize
  obj: Z

Subject To
  c1: a(0,0) + a(1,0) + a(2,0) + a(3,0) + a(4,0) + a(5,0) + a(6,0) + a(7,0) + a(8,0) + a(9,0) + a(10,0) + a(11,0) + a(12,0) + a(13,0) + a(14,0) + a(15,0) + a(16,0) + a(17,0) + a(18,0) + a(19,0) + a(20,0) + a(21,0) + a(22,0) + a(23,0) + a(24,0) + a(25,0) + a(26,0) + a(27,0) + a(28,0) + a(29,0) + a(30,0) + a(31,0) + a(32,0) + a(33,0) + a(34,0) + a(35,0) + a(36,0) + a(37,0) + a(38,0) = 2
  c2: a(0,1) + a(1,1) + a(2,1) + a(3,1) + a(4,1) + a(5,1) + a(6,1) + a(7,1) + a(8,1) + a(9,1) + a(10,1) + a(11,1) + a(12,1) + a(13,1) + a(14,1) + a(15,1) + a(16,1) + a(17,1) + a(18,1) + a(19,1) + a(20,1) + a(21,1) + a(22,1) + a(23,1) + a(24,1) + a(25,1) + a(26,1) + a(27,1) + a(28,1) + a(29,1) + a(30,1) + a(31,1) + a(32,1) + a(33,1) + a(34,1) + a(35,1) + a(36,1) + a(37,1) + a(38,1) = 2
  c3: a(0,2) + a(1,2) + a(2,2) + a(3,2) + a(4,2) + a(5,2) + a(6,2) + a(7,2) + a(8,2) + a(9,2) + a(10,2) + a(11,2) + a(12,2) + a(13,2) + a(14,2) + a(15,2) + a(16,2) + a(17,2) + a(18,2) + a(19,2) + a(20,2) + a(21,2) + a(22,2) + a(23,2) + a(24,2) + a(25,2) + a(26,2) + a(27,2) + a(28,2) + a(29,2) + a(30,2) + a(31,2) + a(32,2) + a(33,2) + a(34,2) + a(35,2) + a(36,2) + a(37,2) + a(38,2) = 2
  c4: a(0,3) + a(1,3) + a(2,3) + a(3,3) + a(4,3) + a(5,3) + a(6,3) + a(7,3) + a(8,3) + a(9,3) + a(10,3) + a(11,3) + a(12,3) + a(13,3) + a(14,3) + a(15,3) + a(16,3) + a(17,3) + a(18,3) + a(19,3) + a(20,3) + a(21,3) + a(22,3) + a(23,3) + a(24,3) + a(25,3) + a(26,3) + a(27,3) + a(28,3) + a(29,3) + a(30,3) + a(31,3) + a(32,3) + a(33,3) + a(34,3) + a(35,3) + a(36,3) + a(37,3) + a(38,3) = 2
  c5: a(0,4) + a(1,4) + a(2,4) + a(3,4) + a(4,4) + a(5,4) + a(6,4) + a(7,4) + a(8,4) + a(9,4) + a(10,4) + a(11,4) + a(12,4) + a(13,4) + a(14,4) + a(15,4) + a(16,4) + a(17,4) + a(18,4) + a(19,4) + a(20,4) + a(21,4) + a(22,4) + a(23,4) + a(24,4) + a(25,4) + a(26,4) + a(27,4) + a(28,4) + a(29,4) + a(30,4) + a(31,4) + a(32,4) + a(33,4) + a(34,4) + a(35,4) + a(36,4) + a(37,4) + a(38,4) = 2
  c6: a(0,5) + a(1,5) + a(2,5) + a(3,5) + a(4,5) + a(5,5) + a(6,5) + a(7,5) + a(8,5) + a(9,5) + a(10,5) + a(11,5) + a(12,5) + a(13,5) + a(14,5) + a(15,5) + a(16,5) + a(17,5) + a(18,5) + a(19,5) + a(20,5) + a(21,5) + a(22,5) + a(23,5) + a(24,5) + a(25,5) + a(26,5) + a(27,5) + a(28,5) + a(29,5) + a(30,5) + a(31,5) + a(32,5) + a(33,5) + a(34,5) + a(35,5) + a(36,5) + a(37,5) + a(38,5) = 2
  c7: a(0,6) + a(1,6) + a(2,6) + a(3,6) + a(4,6) + a(5,6) + a(6,6) + a(7,6) + a(8,6) + a(9,6) + a(10,6) + a(11,6) + a(12,6) + a(13,6) + a(14,6) + a(15,6) + a(16,6) + a(17,6) + a(18,6) + a(19,6) + a(20,6) + a(21,6) + a(22,6) + a(23,6) + a(24,6) + a(25,6) + a(26,6) + a(27,6) + a(28,6) + a(29,6) + a(30,6) + a(31,6) + a(32,6) + a(33,6) + a(34,6) + a(35,6) + a(36,6) + a(37,6) + a(38,6) = 2
  c8: a(0,7) + a(1,7) + a(2,7) + a(3,7) + a(4,7) + a(5,7) + a(6,7) + a(7,7) + a(8,7) + a(9,7) + a(10,7) + a(11,7) + a(12,7) + a(13,7) + a(14,7) + a(15,7) + a(16,7) + a(17,7) + a(18,7) + a(19,7) + a(20,7) + a(21,7) + a(22,7) + a(23,7) + a(24,7) + a(25,7) + a(26,7) + a(27,7) + a(28,7) + a(29,7) + a(30,7) + a(31,7) + a(32,7) + a(33,7) + a(34,7) + a(35,7) + a(36,7) + a(37,7) + a(38,7) = 2
  c9: a(0,8) + a(1,8) + a(2,8) + a(3,8) + a(4,8) + a(5,8) + a(6,8) + a(7,8) + a(8,8) + a(9,8) + a(10,8) + a(11,8) + a(12,8) + a(13,8) + a(14,8) + a(15,8) + a(16,8) + a(17,8) + a(18,8) + a(19,8) + a(20,8) + a(21,8) + a(22,8) + a(23,8) + a(24,8) + a(25,8) + a(26,8) + a(27,8) + a(28,8) + a(29,8) + a(30,8) + a(31,8) + a(32,8) + a(33,8) + a(34,8) + a(35,8) + a(36,8) + a(37,8) + a(38,8) = 2
  c10: a(0,9) + a(1,9) + a(2,9) + a(3,9) + a(4,9) + a(5,9) + a(6,9) + a(7,9) + a(8,9) + a(9,9) + a(10,9) + a(11,9) + a(12,9) + a(13,9) + a(14,9) + a(15,9) + a(16,9) + a(17,9) + a(18,9) + a(19,9) + a(20,9) + a(21,9) + a(22,9) + a(23,9) + a(24,9) + a(25,9) + a(26,9) + a(27,9) + a(28,9) + a(29,9) + a(30,9) + a(31,9) + a(32,9) + a(33,9) + a(34,9) + a(35,9) + a(36,9) + a(37,9) + a(38,9) = 2
  c11: a(0,10) + a(1,10) + a(2,10) + a(3,10) + a(4,10) + a(5,10) + a(6,10) + a(7,10) + a(8,10) + a(9,10) + a(10,10) + a(11,10) + a(12,10) + a(13,10) + a(14,10) + a(15,10) + a(16,10) + a(17,10) + a(18,10) + a(19,10) + a(20,10) + a(21,10) + a(22,10) + a(23,10) + a(24,10) + a(25,10) + a(26,10) + a(27,10) + a(28,10) + a(29,10) + a(30,10) + a(31,10) + a(32,10) + a(33,10) + a(34,10) + a(35,10) + a(36,10) + a(37,10) + a(38,10) = 2
  c12: a(0,11) + a(1,11) + a(2,11) + a(3,11) + a(4,11) + a(5,11) + a(6,11) + a(7,11) + a(8,11) + a(9,11) + a(10,11) + a(11,11) + a(12,11) + a(13,11) + a(14,11) + a(15,11) + a(16,11) + a(17,11) + a(18,11) + a(19,11) + a(20,11) + a(21,11) + a(22,11) + a(23,11) + a(24,11) + a(25,11) + a(26,11) + a(27,11) + a(28,11) + a(29,11) + a(30,11) + a(31,11) + a(32,11) + a(33,11) + a(34,11) + a(35,11) + a(36,11) + a(37,11) + a(38,11) = 2
  c13: a(0,12) + a(1,12) + a(2,12) + a(3,12) + a(4,12) + a(5,12) + a(6,12) + a(7,12) + a(8,12) + a(9,12) + a(10,12) + a(11,12) + a(12,12) + a(13,12) + a(14,12) + a(15,12) + a(16,12) + a(17,12) + a(18,12) + a(19,12) + a(20,12) + a(21,12) + a(22,12) + a(23,12) + a(24,12) + a(25,12) + a(26,12) + a(27,12) + a(28,12) + a(29,12) + a(30,12) + a(31,12) + a(32,12) + a(33,12) + a(34,12) + a(35,12) + a(36,12) + a(37,12) + a(38,12) = 2
  c14: a(0,13) + a(1,13) + a(2,13) + a(3,13) + a(4,13) + a(5,13) + a(6,13) + a(7,13) + a(8,13) + a(9,13) + a(10,13) + a(11,13) + a(12,13) + a(13,13) + a(14,13) + a(15,13) + a(16,13) + a(17,13) + a(18,13) + a(19,13) + a(20,13) + a(21,13) + a(22,13) + a(23,13) + a(24,13) + a(25,13) + a(26,13) + a(27,13) + a(28,13) + a(29,13) + a(30,13) + a(31,13) + a(32,13) + a(33,13) + a(34,13) + a(35,13) + a(36,13) + a(37,13) + a(38,13) = 2
  c15: a(0,14) + a(1,14) + a(2,14) + a(3,14) + a(4,14) + a(5,14) + a(6,14) + a(7,14) + a(8,14) + a(9,14) + a(10,14) + a(11,14) + a(12,14) + a(13,14) + a(14,14) + a(15,14) + a(16,14) + a(17,14) + a(18,14) + a(19,14) + a(20,14) + a(21,14) + a(22,14) + a(23,14) + a(24,14) + a(25,14) + a(26,14) + a(27,14) + a(28,14) + a(29,14) + a(30,14) + a(31,14) + a(32,14) + a(33,14) + a(34,14) + a(35,14) + a(36,14) + a(37,14) + a(38,14) = 2
  c16: a(0,15) + a(1,15) + a(2,15) + a(3,15) + a(4,15) + a(5,15) + a(6,15) + a(7,15) + a(8,15) + a(9,15) + a(10,15) + a(11,15) + a(12,15) + a(13,15) + a(14,15) + a(15,15) + a(16,15) + a(17,15) + a(18,15) + a(19,15) + a(20,15) + a(21,15) + a(22,15) + a(23,15) + a(24,15) + a(25,15) + a(26,15) + a(27,15) + a(28,15) + a(29,15) + a(30,15) + a(31,15) + a(32,15) + a(33,15) + a(34,15) + a(35,15) + a(36,15) + a(37,15) + a(38,15) = 2
  c17: a(0,16) + a(1,16) + a(2,16) + a(3,16) + a(4,16) + a(5,16) + a(6,16) + a(7,16) + a(8,16) + a(9,16) + a(10,16) + a(11,16) + a(12,16) + a(13,16) + a(14,16) + a(15,16) + a(16,16) + a(17,16) + a(18,16) + a(19,16) + a(20,16) + a(21,16) + a(22,16) + a(23,16) + a(24,16) + a(25,16) + a(26,16) + a(27,16) + a(28,16) + a(29,16) + a(30,16) + a(31,16) + a(32,16) + a(33,16) + a(34,16) + a(35,16) + a(36,16) + a(37,16) + a(38,16) = 2
  c18: a(0,17) + a(1,17) + a(2,17) + a(3,17) + a(4,17) + a(5,17) + a(6,17) + a(7,17) + a(8,17) + a(9,17) + a(10,17) + a(11,17) + a(12,17) + a(13,17) + a(14,17) + a(15,17) + a(16,17) + a(17,17) + a(18,17) + a(19,17) + a(20,17) + a(21,17) + a(22,17) + a(23,17) + a(24,17) + a(25,17) + a(26,17) + a(27,17) + a(28,17) + a(29,17) + a(30,17) + a(31,17) + a(32,17) + a(33,17) + a(34,17) + a(35,17) + a(36,17) + a(37,17) + a(38,17) = 2
  c19: a(0,18) + a(1,18) + a(2,18) + a(3,18) + a(4,18) + a(5,18) + a(6,18) + a(7,18) + a(8,18) + a(9,18) + a(10,18) + a(11,18) + a(12,18) + a(13,18) + a(14,18) + a(15,18) + a(16,18) + a(17,18) + a(18,18) + a(19,18) + a(20,18) + a(21,18) + a(22,18) + a(23,18) + a(24,18) + a(25,18) + a(26,18) + a(27,18) + a(28,18) + a(29,18) + a(30,18) + a(31,18) + a(32,18) + a(33,18) + a(34,18) + a(35,18) + a(36,18) + a(37,18) + a(38,18) = 2
  c20: a(0,19) + a(1,19) + a(2,19) + a(3,19) + a(4,19) + a(5,19) + a(6,19) + a(7,19) + a(8,19) + a(9,19) + a(10,19) + a(11,19) + a(12,19) + a(13,19) + a(14,19) + a(15,19) + a(16,19) + a(17,19) + a(18,19) + a(19,19) + a(20,19) + a(21,19) + a(22,19) + a(23,19) + a(24,19) + a(25,19) + a(26,19) + a(27,19) + a(28,19) + a(29,19) + a(30,19) + a(31,19) + a(32,19) + a(33,19) + a(34,19) + a(35,19) + a(36,19) + a(37,19) + a(38,19) = 2
  c21: a(0,20) + a(1,20) + a(2,20) + a(3,20) + a(4,20) + a(5,20) + a(6,20) + a(7,20) + a(8,20) + a(9,20) + a(10,20) + a(11,20) + a(12,20) + a(13,20) + a(14,20) + a(15,20) + a(16,20) + a(17,20) + a(18,20) + a(19,20) + a(20,20) + a(21,20) + a(22,20) + a(23,20) + a(24,20) + a(25,20) + a(26,20) + a(27,20) + a(28,20) + a(29,20) + a(30,20) + a(31,20) + a(32,20) + a(33,20) + a(34,20) + a(35,20) + a(36,20) + a(37,20) + a(38,20) = 2
  c22: a(0,21) + a(1,21) + a(2,21) + a(3,21) + a(4,21) + a(5,21) + a(6,21) + a(7,21) + a(8,21) + a(9,21) + a(10,21) + a(11,21) + a(12,21) + a(13,21) + a(14,21) + a(15,21) + a(16,21) + a(17,21) + a(18,21) + a(19,21) + a(20,21) + a(21,21) + a(22,21) + a(23,21) + a(24,21) + a(25,21) + a(26,21) + a(27,21) + a(28,21) + a(29,21) + a(30,21) + a(31,21) + a(32,21) + a(33,21) + a(34,21) + a(35,21) + a(36,21) + a(37,21) + a(38,21) = 2
  c23:  a(0,0) + a(0,1) + a(0,2) + a(0,3) + a(0,4) + a(0,5) + a(0,6) + a(0,7) + a(0,8) + a(0,9) + a(0,10) + a(0,11) + a(0,12) + a(0,13) + a(0,14) + a(0,15) + a(0,16) + a(0,17) + a(0,18) + a(0,19) + a(0,20) + a(0,21) <= 340282350000000000000000000000000000000
  c24: 0.5 a(0,0) + 0.5 a(0,1) + 0.5 a(0,2) + 0.5 a(0,3) + 0.5 a(0,4) + 0.5 a(0,5) + 0.5 a(0,6) + 0.5 a(0,7) + 0.5 a(0,8) + 0.5 a(0,9) + 0.5 a(0,10) + 0.5 a(0,11) + 0.5 a(0,12) + 0.5 a(0,13) + 0.5 a(0,14) + 0.5 a(0,15) + 0.5 a(0,16) + 0.5 a(0,17) + 0.5 a(0,18) + 0.5 a(0,19) + 0.5 a(0,20) + 0.5 a(0,21) - Z <= 0
  c25:  a(1,0) + a(1,1) + a(1,2) + a(1,3) + a(1,4) + a(1,5) + a(1,6) + a(1,7) + a(1,8) + a(1,9) + a(1,10) + a(1,11) + a(1,12) + a(1,13) + a(1,14) + a(1,15) + a(1,16) + a(1,17) + a(1,18) + a(1,19) + a(1,20) + a(1,21) <= 340282350000000000000000000000000000000
  c26: 0.5 a(1,0) + 0.5 a(1,1) + 0.5 a(1,2) + 0.5 a(1,3) + 0.5 a(1,4) + 0.5 a(1,5) + 0.5 a(1,6) + 0.5 a(1,7) + 0.5 a(1,8) + 0.5 a(1,9) + 0.5 a(1,10) + 0.5 a(1,11) + 0.5 a(1,12) + 0.5 a(1,13) + 0.5 a(1,14) + 0.5 a(1,15) + 0.5 a(1,16) + 0.5 a(1,17) + 0.5 a(1,18) + 0.5 a(1,19) + 0.5 a(1,20) + 0.5 a(1,21) - Z <= 0
  c27:  a(2,0) + a(2,1) + a(2,2) + a(2,3) + a(2,4) + a(2,5) + a(2,6) + a(2,7) + a(2,8) + a(2,9) + a(2,10) + a(2,11) + a(2,12) + a(2,13) + a(2,14) + a(2,15) + a(2,16) + a(2,17) + a(2,18) + a(2,19) + a(2,20) + a(2,21) <= 340282350000000000000000000000000000000
  c28: 0.5 a(2,0) + 0.5 a(2,1) + 0.5 a(2,2) + 0.5 a(2,3) + 0.5 a(2,4) + 0.5 a(2,5) + 0.5 a(2,6) + 0.5 a(2,7) + 0.5 a(2,8) + 0.5 a(2,9) + 0.5 a(2,10) + 0.5 a(2,11) + 0.5 a(2,12) + 0.5 a(2,13) + 0.5 a(2,14) + 0.5 a(2,15) + 0.5 a(2,16) + 0.5 a(2,17) + 0.5 a(2,18) + 0.5 a(2,19) + 0.5 a(2,20) + 0.5 a(2,21) - Z <= 0
  c29:  a(3,0) + a(3,1) + a(3,2) + a(3,3) + a(3,4) + a(3,5) + a(3,6) + a(3,7) + a(3,8) + a(3,9) + a(3,10) + a(3,11) + a(3,12) + a(3,13) + a(3,14) + a(3,15) + a(3,16) + a(3,17) + a(3,18) + a(3,19) + a(3,20) + a(3,21) <= 340282350000000000000000000000000000000
  c30: 0.5 a(3,0) + 0.5 a(3,1) + 0.5 a(3,2) + 0.5 a(3,3) + 0.5 a(3,4) + 0.5 a(3,5) + 0.5 a(3,6) + 0.5 a(3,7) + 0.5 a(3,8) + 0.5 a(3,9) + 0.5 a(3,10) + 0.5 a(3,11) + 0.5 a(3,12) + 0.5 a(3,13) + 0.5 a(3,14) + 0.5 a(3,15) + 0.5 a(3,16) + 0.5 a(3,17) + 0.5 a(3,18) + 0.5 a(3,19) + 0.5 a(3,20) + 0.5 a(3,21) - Z <= 0
  c31:  a(4,0) + a(4,1) + a(4,2) + a(4,3) + a(4,4) + a(4,5) + a(4,6) + a(4,7) + a(4,8) + a(4,9) + a(4,10) + a(4,11) + a(4,12) + a(4,13) + a(4,14) + a(4,15) + a(4,16) + a(4,17) + a(4,18) + a(4,19) + a(4,20) + a(4,21) <= 340282350000000000000000000000000000000
  c32: 0.5 a(4,0) + 0.5 a(4,1) + 0.5 a(4,2) + 0.5 a(4,3) + 0.5 a(4,4) + 0.5 a(4,5) + 0.5 a(4,6) + 0.5 a(4,7) + 0.5 a(4,8) + 0.5 a(4,9) + 0.5 a(4,10) + 0.5 a(4,11) + 0.5 a(4,12) + 0.5 a(4,13) + 0.5 a(4,14) + 0.5 a(4,15) + 0.5 a(4,16) + 0.5 a(4,17) + 0.5 a(4,18) + 0.5 a(4,19) + 0.5 a(4,20) + 0.5 a(4,21) - Z <= 0
  c33:  a(5,0) + a(5,1) + a(5,2) + a(5,3) + a(5,4) + a(5,5) + a(5,6) + a(5,7) + a(5,8) + a(5,9) + a(5,10) + a(5,11) + a(5,12) + a(5,13) + a(5,14) + a(5,15) + a(5,16) + a(5,17) + a(5,18) + a(5,19) + a(5,20) + a(5,21) <= 340282350000000000000000000000000000000
  c34: 0.5 a(5,0) + 0.5 a(5,1) + 0.5 a(5,2) + 0.5 a(5,3) + 0.5 a(5,4) + 0.5 a(5,5) + 0.5 a(5,6) + 0.5 a(5,7) + 0.5 a(5,8) + 0.5 a(5,9) + 0.5 a(5,10) + 0.5 a(5,11) + 0.5 a(5,12) + 0.5 a(5,13) + 0.5 a(5,14) + 0.5 a(5,15) + 0.5 a(5,16) + 0.5 a(5,17) + 0.5 a(5,18) + 0.5 a(5,19) + 0.5 a(5,20) + 0.5 a(5,21) - Z <= 0
  c35:  a(6,0) + a(6,1) + a(6,2) + a(6,3) + a(6,4) + a(6,5) + a(6,6) + a(6,7) + a(6,8) + a(6,9) + a(6,10) + a(6,11) + a(6,12) + a(6,13) + a(6,14) + a(6,15) + a(6,16) + a(6,17) + a(6,18) + a(6,19) + a(6,20) + a(6,21) <= 340282350000000000000000000000000000000
  c36: 0.5 a(6,0) + 0.5 a(6,1) + 0.5 a(6,2) + 0.5 a(6,3) + 0.5 a(6,4) + 0.5 a(6,5) + 0.5 a(6,6) + 0.5 a(6,7) + 0.5 a(6,8) + 0.5 a(6,9) + 0.5 a(6,10) + 0.5 a(6,11) + 0.5 a(6,12) + 0.5 a(6,13) + 0.5 a(6,14) + 0.5 a(6,15) + 0.5 a(6,16) + 0.5 a(6,17) + 0.5 a(6,18) + 0.5 a(6,19) + 0.5 a(6,20) + 0.5 a(6,21) - Z <= 0
  c37:  a(7,0) + a(7,1) + a(7,2) + a(7,3) + a(7,4) + a(7,5) + a(7,6) + a(7,7) + a(7,8) + a(7,9) + a(7,10) + a(7,11) + a(7,12) + a(7,13) + a(7,14) + a(7,15) + a(7,16) + a(7,17) + a(7,18) + a(7,19) + a(7,20) + a(7,21) <= 340282350000000000000000000000000000000
  c38: 0.5 a(7,0) + 0.5 a(7,1) + 0.5 a(7,2) + 0.5 a(7,3) + 0.5 a(7,4) + 0.5 a(7,5) + 0.5 a(7,6) + 0.5 a(7,7) + 0.5 a(7,8) + 0.5 a(7,9) + 0.5 a(7,10) + 0.5 a(7,11) + 0.5 a(7,12) + 0.5 a(7,13) + 0.5 a(7,14) + 0.5 a(7,15) + 0.5 a(7,16) + 0.5 a(7,17) + 0.5 a(7,18) + 0.5 a(7,19) + 0.5 a(7,20) + 0.5 a(7,21) - Z <= 0
  c39:  a(8,0) + a(8,1) + a(8,2) + a(8,3) + a(8,4) + a(8,5) + a(8,6) + a(8,7) + a(8,8) + a(8,9) + a(8,10) + a(8,11) + a(8,12) + a(8,13) + a(8,14) + a(8,15) + a(8,16) + a(8,17) + a(8,18) + a(8,19) + a(8,20) + a(8,21) <= 340282350000000000000000000000000000000
  c40: 0.5 a(8,0) + 0.5 a(8,1) + 0.5 a(8,2) + 0.5 a(8,3) + 0.5 a(8,4) + 0.5 a(8,5) + 0.5 a(8,6) + 0.5 a(8,7) + 0.5 a(8,8) + 0.5 a(8,9) + 0.5 a(8,10) + 0.5 a(8,11) + 0.5 a(8,12) + 0.5 a(8,13) + 0.5 a(8,14) + 0.5 a(8,15) + 0.5 a(8,16) + 0.5 a(8,17) + 0.5 a(8,18) + 0.5 a(8,19) + 0.5 a(8,20) + 0.5 a(8,21) - Z <= 0
  c41:  a(9,0) + a(9,1) + a(9,2) + a(9,3) + a(9,4) + a(9,5) + a(9,6) + a(9,7) + a(9,8) + a(9,9) + a(9,10) + a(9,11) + a(9,12) + a(9,13) + a(9,14) + a(9,15) + a(9,16) + a(9,17) + a(9,18) + a(9,19) + a(9,20) + a(9,21) <= 340282350000000000000000000000000000000
  c42: 0.5 a(9,0) + 0.5 a(9,1) + 0.5 a(9,2) + 0.5 a(9,3) + 0.5 a(9,4) + 0.5 a(9,5) + 0.5 a(9,6) + 0.5 a(9,7) + 0.5 a(9,8) + 0.5 a(9,9) + 0.5 a(9,10) + 0.5 a(9,11) + 0.5 a(9,12) + 0.5 a(9,13) + 0.5 a(9,14) + 0.5 a(9,15) + 0.5 a(9,16) + 0.5 a(9,17) + 0.5 a(9,18) + 0.5 a(9,19) + 0.5 a(9,20) + 0.5 a(9,21) - Z <= 0
  c43:  a(10,0) + a(10,1) + a(10,2) + a(10,3) + a(10,4) + a(10,5) + a(10,6) + a(10,7) + a(10,8) + a(10,9) + a(10,10) + a(10,11) + a(10,12) + a(10,13) + a(10,14) + a(10,15) + a(10,16) + a(10,17) + a(10,18) + a(10,19) + a(10,20) + a(10,21) <= 340282350000000000000000000000000000000
  c44: 0.5 a(10,0) + 0.5 a(10,1) + 0.5 a(10,2) + 0.5 a(10,3) + 0.5 a(10,4) + 0.5 a(10,5) + 0.5 a(10,6) + 0.5 a(10,7) + 0.5 a(10,8) + 0.5 a(10,9) + 0.5 a(10,10) + 0.5 a(10,11) + 0.5 a(10,12) + 0.5 a(10,13) + 0.5 a(10,14) + 0.5 a(10,15) + 0.5 a(10,16) + 0.5 a(10,17) + 0.5 a(10,18) + 0.5 a(10,19) + 0.5 a(10,20) + 0.5 a(10,21) - Z <= 0
  c45:  a(11,0) + a(11,1) + a(11,2) + a(11,3) + a(11,4) + a(11,5) + a(11,6) + a(11,7) + a(11,8) + a(11,9) + a(11,10) + a(11,11) + a(11,12) + a(11,13) + a(11,14) + a(11,15) + a(11,16) + a(11,17) + a(11,18) + a(11,19) + a(11,20) + a(11,21) <= 340282350000000000000000000000000000000
  c46: 0.5 a(11,0) + 0.5 a(11,1) + 0.5 a(11,2) + 0.5 a(11,3) + 0.5 a(11,4) + 0.5 a(11,5) + 0.5 a(11,6) + 0.5 a(11,7) + 0.5 a(11,8) + 0.5 a(11,9) + 0.5 a(11,10) + 0.5 a(11,11) + 0.5 a(11,12) + 0.5 a(11,13) + 0.5 a(11,14) + 0.5 a(11,15) + 0.5 a(11,16) + 0.5 a(11,17) + 0.5 a(11,18) + 0.5 a(11,19) + 0.5 a(11,20) + 0.5 a(11,21) - Z <= 0
  c47:  a(12,0) + a(12,1) + a(12,2) + a(12,3) + a(12,4) + a(12,5) + a(12,6) + a(12,7) + a(12,8) + a(12,9) + a(12,10) + a(12,11) + a(12,12) + a(12,13) + a(12,14) + a(12,15) + a(12,16) + a(12,17) + a(12,18) + a(12,19) + a(12,20) + a(12,21) <= 340282350000000000000000000000000000000
  c48: 0.5 a(12,0) + 0.5 a(12,1) + 0.5 a(12,2) + 0.5 a(12,3) + 0.5 a(12,4) + 0.5 a(12,5) + 0.5 a(12,6) + 0.5 a(12,7) + 0.5 a(12,8) + 0.5 a(12,9) + 0.5 a(12,10) + 0.5 a(12,11) + 0.5 a(12,12) + 0.5 a(12,13) + 0.5 a(12,14) + 0.5 a(12,15) + 0.5 a(12,16) + 0.5 a(12,17) + 0.5 a(12,18) + 0.5 a(12,19) + 0.5 a(12,20) + 0.5 a(12,21) - Z <= 0
  c49:  a(13,0) + a(13,1) + a(13,2) + a(13,3) + a(13,4) + a(13,5) + a(13,6) + a(13,7) + a(13,8) + a(13,9) + a(13,10) + a(13,11) + a(13,12) + a(13,13) + a(13,14) + a(13,15) + a(13,16) + a(13,17) + a(13,18) + a(13,19) + a(13,20) + a(13,21) <= 340282350000000000000000000000000000000
  c50: 0.5 a(13,0) + 0.5 a(13,1) + 0.5 a(13,2) + 0.5 a(13,3) + 0.5 a(13,4) + 0.5 a(13,5) + 0.5 a(13,6) + 0.5 a(13,7) + 0.5 a(13,8) + 0.5 a(13,9) + 0.5 a(13,10) + 0.5 a(13,11) + 0.5 a(13,12) + 0.5 a(13,13) + 0.5 a(13,14) + 0.5 a(13,15) + 0.5 a(13,16) + 0.5 a(13,17) + 0.5 a(13,18) + 0.5 a(13,19) + 0.5 a(13,20) + 0.5 a(13,21) - Z <= 0
  c51:  a(14,0) + a(14,1) + a(14,2) + a(14,3) + a(14,4) + a(14,5) + a(14,6) + a(14,7) + a(14,8) + a(14,9) + a(14,10) + a(14,11) + a(14,12) + a(14,13) + a(14,14) + a(14,15) + a(14,16) + a(14,17) + a(14,18) + a(14,19) + a(14,20) + a(14,21) <= 340282350000000000000000000000000000000
  c52: 0.5 a(14,0) + 0.5 a(14,1) + 0.5 a(14,2) + 0.5 a(14,3) + 0.5 a(14,4) + 0.5 a(14,5) + 0.5 a(14,6) + 0.5 a(14,7) + 0.5 a(14,8) + 0.5 a(14,9) + 0.5 a(14,10) + 0.5 a(14,11) + 0.5 a(14,12) + 0.5 a(14,13) + 0.5 a(14,14) + 0.5 a(14,15) + 0.5 a(14,16) + 0.5 a(14,17) + 0.5 a(14,18) + 0.5 a(14,19) + 0.5 a(14,20) + 0.5 a(14,21) - Z <= 0
  c53:  a(15,0) + a(15,1) + a(15,2) + a(15,3) + a(15,4) + a(15,5) + a(15,6) + a(15,7) + a(15,8) + a(15,9) + a(15,10) + a(15,11) + a(15,12) + a(15,13) + a(15,14) + a(15,15) + a(15,16) + a(15,17) + a(15,18) + a(15,19) + a(15,20) + a(15,21) <= 340282350000000000000000000000000000000
  c54: 0.5 a(15,0) + 0.5 a(15,1) + 0.5 a(15,2) + 0.5 a(15,3) + 0.5 a(15,4) + 0.5 a(15,5) + 0.5 a(15,6) + 0.5 a(15,7) + 0.5 a(15,8) + 0.5 a(15,9) + 0.5 a(15,10) + 0.5 a(15,11) + 0.5 a(15,12) + 0.5 a(15,13) + 0.5 a(15,14) + 0.5 a(15,15) + 0.5 a(15,16) + 0.5 a(15,17) + 0.5 a(15,18) + 0.5 a(15,19) + 0.5 a(15,20) + 0.5 a(15,21) - Z <= 0
  c55:  a(16,0) + a(16,1) + a(16,2) + a(16,3) + a(16,4) + a(16,5) + a(16,6) + a(16,7) + a(16,8) + a(16,9) + a(16,10) + a(16,11) + a(16,12) + a(16,13) + a(16,14) + a(16,15) + a(16,16) + a(16,17) + a(16,18) + a(16,19) + a(16,20) + a(16,21) <= 340282350000000000000000000000000000000
  c56: 0.5 a(16,0) + 0.5 a(16,1) + 0.5 a(16,2) + 0.5 a(16,3) + 0.5 a(16,4) + 0.5 a(16,5) + 0.5 a(16,6) + 0.5 a(16,7) + 0.5 a(16,8) + 0.5 a(16,9) + 0.5 a(16,10) + 0.5 a(16,11) + 0.5 a(16,12) + 0.5 a(16,13) + 0.5 a(16,14) + 0.5 a(16,15) + 0.5 a(16,16) + 0.5 a(16,17) + 0.5 a(16,18) + 0.5 a(16,19) + 0.5 a(16,20) + 0.5 a(16,21) - Z <= 0
  c57:  a(17,0) + a(17,1) + a(17,2) + a(17,3) + a(17,4) + a(17,5) + a(17,6) + a(17,7) + a(17,8) + a(17,9) + a(17,10) + a(17,11) + a(17,12) + a(17,13) + a(17,14) + a(17,15) + a(17,16) + a(17,17) + a(17,18) + a(17,19) + a(17,20) + a(17,21) <= 340282350000000000000000000000000000000
  c58: 0.5 a(17,0) + 0.5 a(17,1) + 0.5 a(17,2) + 0.5 a(17,3) + 0.5 a(17,4) + 0.5 a(17,5) + 0.5 a(17,6) + 0.5 a(17,7) + 0.5 a(17,8) + 0.5 a(17,9) + 0.5 a(17,10) + 0.5 a(17,11) + 0.5 a(17,12) + 0.5 a(17,13) + 0.5 a(17,14) + 0.5 a(17,15) + 0.5 a(17,16) + 0.5 a(17,17) + 0.5 a(17,18) + 0.5 a(17,19) + 0.5 a(17,20) + 0.5 a(17,21) - Z <= 0
  c59:  a(18,0) + a(18,1) + a(18,2) + a(18,3) + a(18,4) + a(18,5) + a(18,6) + a(18,7) + a(18,8) + a(18,9) + a(18,10) + a(18,11) + a(18,12) + a(18,13) + a(18,14) + a(18,15) + a(18,16) + a(18,17) + a(18,18) + a(18,19) + a(18,20) + a(18,21) <= 340282350000000000000000000000000000000
  c60: 0.5 a(18,0) + 0.5 a(18,1) + 0.5 a(18,2) + 0.5 a(18,3) + 0.5 a(18,4) + 0.5 a(18,5) + 0.5 a(18,6) + 0.5 a(18,7) + 0.5 a(18,8) + 0.5 a(18,9) + 0.5 a(18,10) + 0.5 a(18,11) + 0.5 a(18,12) + 0.5 a(18,13) + 0.5 a(18,14) + 0.5 a(18,15) + 0.5 a(18,16) + 0.5 a(18,17) + 0.5 a(18,18) + 0.5 a(18,19) + 0.5 a(18,20) + 0.5 a(18,21) - Z <= 0
  c61:  a(19,0) + a(19,1) + a(19,2) + a(19,3) + a(19,4) + a(19,5) + a(19,6) + a(19,7) + a(19,8) + a(19,9) + a(19,10) + a(19,11) + a(19,12) + a(19,13) + a(19,14) + a(19,15) + a(19,16) + a(19,17) + a(19,18) + a(19,19) + a(19,20) + a(19,21) <= 340282350000000000000000000000000000000
  c62: 0.5 a(19,0) + 0.5 a(19,1) + 0.5 a(19,2) + 0.5 a(19,3) + 0.5 a(19,4) + 0.5 a(19,5) + 0.5 a(19,6) + 0.5 a(19,7) + 0.5 a(19,8) + 0.5 a(19,9) + 0.5 a(19,10) + 0.5 a(19,11) + 0.5 a(19,12) + 0.5 a(19,13) + 0.5 a(19,14) + 0.5 a(19,15) + 0.5 a(19,16) + 0.5 a(19,17) + 0.5 a(19,18) + 0.5 a(19,19) + 0.5 a(19,20) + 0.5 a(19,21) - Z <= 0
  c63:  a(20,0) + a(20,1) + a(20,2) + a(20,3) + a(20,4) + a(20,5) + a(20,6) + a(20,7) + a(20,8) + a(20,9) + a(20,10) + a(20,11) + a(20,12) + a(20,13) + a(20,14) + a(20,15) + a(20,16) + a(20,17) + a(20,18) + a(20,19) + a(20,20) + a(20,21) <= 340282350000000000000000000000000000000
  c64: 0.5 a(20,0) + 0.5 a(20,1) + 0.5 a(20,2) + 0.5 a(20,3) + 0.5 a(20,4) + 0.5 a(20,5) + 0.5 a(20,6) + 0.5 a(20,7) + 0.5 a(20,8) + 0.5 a(20,9) + 0.5 a(20,10) + 0.5 a(20,11) + 0.5 a(20,12) + 0.5 a(20,13) + 0.5 a(20,14) + 0.5 a(20,15) + 0.5 a(20,16) + 0.5 a(20,17) + 0.5 a(20,18) + 0.5 a(20,19) + 0.5 a(20,20) + 0.5 a(20,21) - Z <= 0
  c65:  a(21,0) + a(21,1) + a(21,2) + a(21,3) + a(21,4) + a(21,5) + a(21,6) + a(21,7) + a(21,8) + a(21,9) + a(21,10) + a(21,11) + a(21,12) + a(21,13) + a(21,14) + a(21,15) + a(21,16) + a(21,17) + a(21,18) + a(21,19) + a(21,20) + a(21,21) <= 340282350000000000000000000000000000000
  c66: 0.5 a(21,0) + 0.5 a(21,1) + 0.5 a(21,2) + 0.5 a(21,3) + 0.5 a(21,4) + 0.5 a(21,5) + 0.5 a(21,6) + 0.5 a(21,7) + 0.5 a(21,8) + 0.5 a(21,9) + 0.5 a(21,10) + 0.5 a(21,11) + 0.5 a(21,12) + 0.5 a(21,13) + 0.5 a(21,14) + 0.5 a(21,15) + 0.5 a(21,16) + 0.5 a(21,17) + 0.5 a(21,18) + 0.5 a(21,19) + 0.5 a(21,20) + 0.5 a(21,21) - Z <= 0
  c67:  a(22,0) + a(22,1) + a(22,2) + a(22,3) + a(22,4) + a(22,5) + a(22,6) + a(22,7) + a(22,8) + a(22,9) + a(22,10) + a(22,11) + a(22,12) + a(22,13) + a(22,14) + a(22,15) + a(22,16) + a(22,17) + a(22,18) + a(22,19) + a(22,20) + a(22,21) <= 340282350000000000000000000000000000000
  c68: 0.5 a(22,0) + 0.5 a(22,1) + 0.5 a(22,2) + 0.5 a(22,3) + 0.5 a(22,4) + 0.5 a(22,5) + 0.5 a(22,6) + 0.5 a(22,7) + 0.5 a(22,8) + 0.5 a(22,9) + 0.5 a(22,10) + 0.5 a(22,11) + 0.5 a(22,12) + 0.5 a(22,13) + 0.5 a(22,14) + 0.5 a(22,15) + 0.5 a(22,16) + 0.5 a(22,17) + 0.5 a(22,18) + 0.5 a(22,19) + 0.5 a(22,20) + 0.5 a(22,21) - Z <= 0
  c69:  a(23,0) + a(23,1) + a(23,2) + a(23,3) + a(23,4) + a(23,5) + a(23,6) + a(23,7) + a(23,8) + a(23,9) + a(23,10) + a(23,11) + a(23,12) + a(23,13) + a(23,14) + a(23,15) + a(23,16) + a(23,17) + a(23,18) + a(23,19) + a(23,20) + a(23,21) <= 340282350000000000000000000000000000000
  c70: 0.5 a(23,0) + 0.5 a(23,1) + 0.5 a(23,2) + 0.5 a(23,3) + 0.5 a(23,4) + 0.5 a(23,5) + 0.5 a(23,6) + 0.5 a(23,7) + 0.5 a(23,8) + 0.5 a(23,9) + 0.5 a(23,10) + 0.5 a(23,11) + 0.5 a(23,12) + 0.5 a(23,13) + 0.5 a(23,14) + 0.5 a(23,15) + 0.5 a(23,16) + 0.5 a(23,17) + 0.5 a(23,18) + 0.5 a(23,19) + 0.5 a(23,20) + 0.5 a(23,21) - Z <= 0
  c71:  a(24,0) + a(24,1) + a(24,2) + a(24,3) + a(24,4) + a(24,5) + a(24,6) + a(24,7) + a(24,8) + a(24,9) + a(24,10) + a(24,11) + a(24,12) + a(24,13) + a(24,14) + a(24,15) + a(24,16) + a(24,17) + a(24,18) + a(24,19) + a(24,20) + a(24,21) <= 340282350000000000000000000000000000000
  c72: 0.5 a(24,0) + 0.5 a(24,1) + 0.5 a(24,2) + 0.5 a(24,3) + 0.5 a(24,4) + 0.5 a(24,5) + 0.5 a(24,6) + 0.5 a(24,7) + 0.5 a(24,8) + 0.5 a(24,9) + 0.5 a(24,10) + 0.5 a(24,11) + 0.5 a(24,12) + 0.5 a(24,13) + 0.5 a(24,14) + 0.5 a(24,15) + 0.5 a(24,16) + 0.5 a(24,17) + 0.5 a(24,18) + 0.5 a(24,19) + 0.5 a(24,20) + 0.5 a(24,21) - Z <= 0
  c73:  a(25,0) + a(25,1) + a(25,2) + a(25,3) + a(25,4) + a(25,5) + a(25,6) + a(25,7) + a(25,8) + a(25,9) + a(25,10) + a(25,11) + a(25,12) + a(25,13) + a(25,14) + a(25,15) + a(25,16) + a(25,17) + a(25,18) + a(25,19) + a(25,20) + a(25,21) <= 340282350000000000000000000000000000000
  c74: 0.5 a(25,0) + 0.5 a(25,1) + 0.5 a(25,2) + 0.5 a(25,3) + 0.5 a(25,4) + 0.5 a(25,5) + 0.5 a(25,6) + 0.5 a(25,7) + 0.5 a(25,8) + 0.5 a(25,9) + 0.5 a(25,10) + 0.5 a(25,11) + 0.5 a(25,12) + 0.5 a(25,13) + 0.5 a(25,14) + 0.5 a(25,15) + 0.5 a(25,16) + 0.5 a(25,17) + 0.5 a(25,18) + 0.5 a(25,19) + 0.5 a(25,20) + 0.5 a(25,21) - Z <= 0
  c75:  a(26,0) + a(26,1) + a(26,2) + a(26,3) + a(26,4) + a(26,5) + a(26,6) + a(26,7) + a(26,8) + a(26,9) + a(26,10) + a(26,11) + a(26,12) + a(26,13) + a(26,14) + a(26,15) + a(26,16) + a(26,17) + a(26,18) + a(26,19) + a(26,20) + a(26,21) <= 340282350000000000000000000000000000000
  c76: 0.5 a(26,0) + 0.5 a(26,1) + 0.5 a(26,2) + 0.5 a(26,3) + 0.5 a(26,4) + 0.5 a(26,5) + 0.5 a(26,6) + 0.5 a(26,7) + 0.5 a(26,8) + 0.5 a(26,9) + 0.5 a(26,10) + 0.5 a(26,11) + 0.5 a(26,12) + 0.5 a(26,13) + 0.5 a(26,14) + 0.5 a(26,15) + 0.5 a(26,16) + 0.5 a(26,17) + 0.5 a(26,18) + 0.5 a(26,19) + 0.5 a(26,20) + 0.5 a(26,21) - Z <= 0
  c77:  a(27,0) + a(27,1) + a(27,2) + a(27,3) + a(27,4) + a(27,5) + a(27,6) + a(27,7) + a(27,8) + a(27,9) + a(27,10) + a(27,11) + a(27,12) + a(27,13) + a(27,14) + a(27,15) + a(27,16) + a(27,17) + a(27,18) + a(27,19) + a(27,20) + a(27,21) <= 340282350000000000000000000000000000000
  c78: 0.5 a(27,0) + 0.5 a(27,1) + 0.5 a(27,2) + 0.5 a(27,3) + 0.5 a(27,4) + 0.5 a(27,5) + 0.5 a(27,6) + 0.5 a(27,7) + 0.5 a(27,8) + 0.5 a(27,9) + 0.5 a(27,10) + 0.5 a(27,11) + 0.5 a(27,12) + 0.5 a(27,13) + 0.5 a(27,14) + 0.5 a(27,15) + 0.5 a(27,16) + 0.5 a(27,17) + 0.5 a(27,18) + 0.5 a(27,19) + 0.5 a(27,20) + 0.5 a(27,21) - Z <= 0
  c79:  a(28,0) + a(28,1) + a(28,2) + a(28,3) + a(28,4) + a(28,5) + a(28,6) + a(28,7) + a(28,8) + a(28,9) + a(28,10) + a(28,11) + a(28,12) + a(28,13) + a(28,14) + a(28,15) + a(28,16) + a(28,17) + a(28,18) + a(28,19) + a(28,20) + a(28,21) <= 340282350000000000000000000000000000000
  c80: 0.5 a(28,0) + 0.5 a(28,1) + 0.5 a(28,2) + 0.5 a(28,3) + 0.5 a(28,4) + 0.5 a(28,5) + 0.5 a(28,6) + 0.5 a(28,7) + 0.5 a(28,8) + 0.5 a(28,9) + 0.5 a(28,10) + 0.5 a(28,11) + 0.5 a(28,12) + 0.5 a(28,13) + 0.5 a(28,14) + 0.5 a(28,15) + 0.5 a(28,16) + 0.5 a(28,17) + 0.5 a(28,18) + 0.5 a(28,19) + 0.5 a(28,20) + 0.5 a(28,21) - Z <= 0
  c81:  a(29,0) + a(29,1) + a(29,2) + a(29,3) + a(29,4) + a(29,5) + a(29,6) + a(29,7) + a(29,8) + a(29,9) + a(29,10) + a(29,11) + a(29,12) + a(29,13) + a(29,14) + a(29,15) + a(29,16) + a(29,17) + a(29,18) + a(29,19) + a(29,20) + a(29,21) <= 340282350000000000000000000000000000000
  c82: 0.5 a(29,0) + 0.5 a(29,1) + 0.5 a(29,2) + 0.5 a(29,3) + 0.5 a(29,4) + 0.5 a(29,5) + 0.5 a(29,6) + 0.5 a(29,7) + 0.5 a(29,8) + 0.5 a(29,9) + 0.5 a(29,10) + 0.5 a(29,11) + 0.5 a(29,12) + 0.5 a(29,13) + 0.5 a(29,14) + 0.5 a(29,15) + 0.5 a(29,16) + 0.5 a(29,17) + 0.5 a(29,18) + 0.5 a(29,19) + 0.5 a(29,20) + 0.5 a(29,21) - Z <= 0
  c83:  a(30,0) + a(30,1) + a(30,2) + a(30,3) + a(30,4) + a(30,5) + a(30,6) + a(30,7) + a(30,8) + a(30,9) + a(30,10) + a(30,11) + a(30,12) + a(30,13) + a(30,14) + a(30,15) + a(30,16) + a(30,17) + a(30,18) + a(30,19) + a(30,20) + a(30,21) <= 340282350000000000000000000000000000000
  c84: 0.5 a(30,0) + 0.5 a(30,1) + 0.5 a(30,2) + 0.5 a(30,3) + 0.5 a(30,4) + 0.5 a(30,5) + 0.5 a(30,6) + 0.5 a(30,7) + 0.5 a(30,8) + 0.5 a(30,9) + 0.5 a(30,10) + 0.5 a(30,11) + 0.5 a(30,12) + 0.5 a(30,13) + 0.5 a(30,14) + 0.5 a(30,15) + 0.5 a(30,16) + 0.5 a(30,17) + 0.5 a(30,18) + 0.5 a(30,19) + 0.5 a(30,20) + 0.5 a(30,21) - Z <= 0
  c85:  a(31,0) + a(31,1) + a(31,2) + a(31,3) + a(31,4) + a(31,5) + a(31,6) + a(31,7) + a(31,8) + a(31,9) + a(31,10) + a(31,11) + a(31,12) + a(31,13) + a(31,14) + a(31,15) + a(31,16) + a(31,17) + a(31,18) + a(31,19) + a(31,20) + a(31,21) <= 340282350000000000000000000000000000000
  c86: 0.5 a(31,0) + 0.5 a(31,1) + 0.5 a(31,2) + 0.5 a(31,3) + 0.5 a(31,4) + 0.5 a(31,5) + 0.5 a(31,6) + 0.5 a(31,7) + 0.5 a(31,8) + 0.5 a(31,9) + 0.5 a(31,10) + 0.5 a(31,11) + 0.5 a(31,12) + 0.5 a(31,13) + 0.5 a(31,14) + 0.5 a(31,15) + 0.5 a(31,16) + 0.5 a(31,17) + 0.5 a(31,18) + 0.5 a(31,19) + 0.5 a(31,20) + 0.5 a(31,21) - Z <= 0
  c87:  a(32,0) + a(32,1) + a(32,2) + a(32,3) + a(32,4) + a(32,5) + a(32,6) + a(32,7) + a(32,8) + a(32,9) + a(32,10) + a(32,11) + a(32,12) + a(32,13) + a(32,14) + a(32,15) + a(32,16) + a(32,17) + a(32,18) + a(32,19) + a(32,20) + a(32,21) <= 340282350000000000000000000000000000000
  c88: 0.5 a(32,0) + 0.5 a(32,1) + 0.5 a(32,2) + 0.5 a(32,3) + 0.5 a(32,4) + 0.5 a(32,5) + 0.5 a(32,6) + 0.5 a(32,7) + 0.5 a(32,8) + 0.5 a(32,9) + 0.5 a(32,10) + 0.5 a(32,11) + 0.5 a(32,12) + 0.5 a(32,13) + 0.5 a(32,14) + 0.5 a(32,15) + 0.5 a(32,16) + 0.5 a(32,17) + 0.5 a(32,18) + 0.5 a(32,19) + 0.5 a(32,20) + 0.5 a(32,21) - Z <= 0
  c89:  a(33,0) + a(33,1) + a(33,2) + a(33,3) + a(33,4) + a(33,5) + a(33,6) + a(33,7) + a(33,8) + a(33,9) + a(33,10) + a(33,11) + a(33,12) + a(33,13) + a(33,14) + a(33,15) + a(33,16) + a(33,17) + a(33,18) + a(33,19) + a(33,20) + a(33,21) <= 340282350000000000000000000000000000000
  c90: 0.5 a(33,0) + 0.5 a(33,1) + 0.5 a(33,2) + 0.5 a(33,3) + 0.5 a(33,4) + 0.5 a(33,5) + 0.5 a(33,6) + 0.5 a(33,7) + 0.5 a(33,8) + 0.5 a(33,9) + 0.5 a(33,10) + 0.5 a(33,11) + 0.5 a(33,12) + 0.5 a(33,13) + 0.5 a(33,14) + 0.5 a(33,15) + 0.5 a(33,16) + 0.5 a(33,17) + 0.5 a(33,18) + 0.5 a(33,19) + 0.5 a(33,20) + 0.5 a(33,21) - Z <= 0
  c91:  a(34,0) + a(34,1) + a(34,2) + a(34,3) + a(34,4) + a(34,5) + a(34,6) + a(34,7) + a(34,8) + a(34,9) + a(34,10) + a(34,11) + a(34,12) + a(34,13) + a(34,14) + a(34,15) + a(34,16) + a(34,17) + a(34,18) + a(34,19) + a(34,20) + a(34,21) <= 340282350000000000000000000000000000000
  c92: 0.5 a(34,0) + 0.5 a(34,1) + 0.5 a(34,2) + 0.5 a(34,3) + 0.5 a(34,4) + 0.5 a(34,5) + 0.5 a(34,6) + 0.5 a(34,7) + 0.5 a(34,8) + 0.5 a(34,9) + 0.5 a(34,10) + 0.5 a(34,11) + 0.5 a(34,12) + 0.5 a(34,13) + 0.5 a(34,14) + 0.5 a(34,15) + 0.5 a(34,16) + 0.5 a(34,17) + 0.5 a(34,18) + 0.5 a(34,19) + 0.5 a(34,20) + 0.5 a(34,21) - Z <= 0
  c93:  a(35,0) + a(35,1) + a(35,2) + a(35,3) + a(35,4) + a(35,5) + a(35,6) + a(35,7) + a(35,8) + a(35,9) + a(35,10) + a(35,11) + a(35,12) + a(35,13) + a(35,14) + a(35,15) + a(35,16) + a(35,17) + a(35,18) + a(35,19) + a(35,20) + a(35,21) <= 340282350000000000000000000000000000000
  c94: 0.5 a(35,0) + 0.5 a(35,1) + 0.5 a(35,2) + 0.5 a(35,3) + 0.5 a(35,4) + 0.5 a(35,5) + 0.5 a(35,6) + 0.5 a(35,7) + 0.5 a(35,8) + 0.5 a(35,9) + 0.5 a(35,10) + 0.5 a(35,11) + 0.5 a(35,12) + 0.5 a(35,13) + 0.5 a(35,14) + 0.5 a(35,15) + 0.5 a(35,16) + 0.5 a(35,17) + 0.5 a(35,18) + 0.5 a(35,19) + 0.5 a(35,20) + 0.5 a(35,21) - Z <= 0
  c95:  a(36,0) + a(36,1) + a(36,2) + a(36,3) + a(36,4) + a(36,5) + a(36,6) + a(36,7) + a(36,8) + a(36,9) + a(36,10) + a(36,11) + a(36,12) + a(36,13) + a(36,14) + a(36,15) + a(36,16) + a(36,17) + a(36,18) + a(36,19) + a(36,20) + a(36,21) <= 340282350000000000000000000000000000000
  c96: 0.5 a(36,0) + 0.5 a(36,1) + 0.5 a(36,2) + 0.5 a(36,3) + 0.5 a(36,4) + 0.5 a(36,5) + 0.5 a(36,6) + 0.5 a(36,7) + 0.5 a(36,8) + 0.5 a(36,9) + 0.5 a(36,10) + 0.5 a(36,11) + 0.5 a(36,12) + 0.5 a(36,13) + 0.5 a(36,14) + 0.5 a(36,15) + 0.5 a(36,16) + 0.5 a(36,17) + 0.5 a(36,18) + 0.5 a(36,19) + 0.5 a(36,20) + 0.5 a(36,21) - Z <= 0
  c97:  a(37,0) + a(37,1) + a(37,2) + a(37,3) + a(37,4) + a(37,5) + a(37,6) + a(37,7) + a(37,8) + a(37,9) + a(37,10) + a(37,11) + a(37,12) + a(37,13) + a(37,14) + a(37,15) + a(37,16) + a(37,17) + a(37,18) + a(37,19) + a(37,20) + a(37,21) <= 340282350000000000000000000000000000000
  c98: 0.5 a(37,0) + 0.5 a(37,1) + 0.5 a(37,2) + 0.5 a(37,3) + 0.5 a(37,4) + 0.5 a(37,5) + 0.5 a(37,6) + 0.5 a(37,7) + 0.5 a(37,8) + 0.5 a(37,9) + 0.5 a(37,10) + 0.5 a(37,11) + 0.5 a(37,12) + 0.5 a(37,13) + 0.5 a(37,14) + 0.5 a(37,15) + 0.5 a(37,16) + 0.5 a(37,17) + 0.5 a(37,18) + 0.5 a(37,19) + 0.5 a(37,20) + 0.5 a(37,21) - Z <= 0
  c99:  a(38,0) + a(38,1) + a(38,2) + a(38,3) + a(38,4) + a(38,5) + a(38,6) + a(38,7) + a(38,8) + a(38,9) + a(38,10) + a(38,11) + a(38,12) + a(38,13) + a(38,14) + a(38,15) + a(38,16) + a(38,17) + a(38,18) + a(38,19) + a(38,20) + a(38,21) <= 340282350000000000000000000000000000000
  c100: 0.5 a(38,0) + 0.5 a(38,1) + 0.5 a(38,2) + 0.5 a(38,3) + 0.5 a(38,4) + 0.5 a(38,5) + 0.5 a(38,6) + 0.5 a(38,7) + 0.5 a(38,8) + 0.5 a(38,9) + 0.5 a(38,10) + 0.5 a(38,11) + 0.5 a(38,12) + 0.5 a(38,13) + 0.5 a(38,14) + 0.5 a(38,15) + 0.5 a(38,16) + 0.5 a(38,17) + 0.5 a(38,18) + 0.5 a(38,19) + 0.5 a(38,20) + 0.5 a(38,21) - Z <= 0

Bounds
  0 <= Z

Binary
  a(36,18) a(5,14) a(3,4) a(9,4) a(19,18) a(18,11) a(11,7) a(11,3) a(7,18) a(20,15) a(32,17) a(5,0) a(1,7) a(34,8) a(19,7) a(3,10) a(31,4) a(35,8) a(36,17) a(26,1) a(23,4) a(9,14) a(37,2) a(36,13) a(36,16) a(19,20) a(17,21) a(23,9) a(27,1) a(12,12) a(4,9) a(38,0) a(16,1) a(5,7) a(1,6) a(21,17) a(2,8) a(28,15) a(35,7) a(23,10) a(19,11) a(1,9) a(18,12) a(7,11) a(30,19) a(10,3) a(17,3) a(25,4) a(27,8) a(32,15) a(14,16) a(5,15) a(30,14) a(26,10) a(12,21) a(14,3) a(3,20) a(12,4) a(9,5) a(37,14) a(15,12) a(8,18) a(8,0) a(2,21) a(14,14) a(20,0) a(7,17) a(34,10) a(25,19) a(27,6) a(13,14) a(25,11) a(13,3) a(17,12) a(18,4) a(21,5) a(14,20) a(1,1) a(4,16) a(10,16) a(16,5) a(8,13) a(29,1) a(38,5) a(33,12) a(38,12) a(7,19) a(33,4) a(9,13) a(16,4) a(32,12) a(20,1) a(20,19) a(26,21) a(31,19) a(30,15) a(37,21) a(8,12) a(1,11) a(26,17) a(24,9) a(29,15) a(38,10) a(24,20) a(17,7) a(16,15) a(2,0) a(30,4) a(0,18) a(22,13) a(12,8) a(26,6) a(22,11) a(21,21) a(5,8) a(32,10) a(34,15) a(34,16) a(26,20) a(12,14) a(7,15) a(28,20) a(10,19) a(29,17) a(38,2) a(21,0) a(35,10) a(17,20) a(16,0) a(31,3) a(12,5) a(36,15) a(10,17) a(24,8) a(36,14) a(14,8) a(20,18) a(27,7) a(22,5) a(25,10) a(10,0) a(13,7) a(19,9) a(13,1) a(26,7) a(34,13) a(8,10) a(10,14) a(7,10) a(13,8) a(23,19) a(35,18) a(16,14) a(26,12) a(36,2) a(21,14) a(3,7) a(21,20) a(1,4) a(17,16) a(31,15) a(31,21) a(24,19) a(10,21) a(16,11) a(27,15) a(18,14) a(15,14) a(28,21) a(11,16) a(16,13) a(3,16) a(29,7) a(30,8) a(36,19) a(13,5) a(15,9) a(32,1) a(12,1) a(30,6) a(26,8) a(24,6) a(11,12) a(14,17) a(5,3) a(29,13) a(17,14) a(25,8) a(9,7) a(38,16) a(21,4) a(18,3) a(36,7) a(2,3) a(0,9) a(32,20) a(37,9) a(13,11) a(11,11) a(14,12) a(30,17) a(2,11) a(8,1) a(22,15) a(12,6) a(23,8) a(1,18) a(3,11) a(0,16) a(34,3) a(12,18) a(6,20) a(22,19) a(28,16) a(20,16) a(11,19) a(4,21) a(26,11) a(23,7) a(29,2) a(32,13) a(12,16) a(4,8) a(11,17) a(18,18) a(18,21) a(15,15) a(29,10) a(19,14) a(20,14) a(29,21) a(18,0) a(24,4) a(33,14) a(1,15) a(34,17) a(4,14) a(0,1) a(5,16) a(14,19) a(3,12) a(27,11) a(13,21) a(28,3) a(27,19) a(19,0) a(1,14) a(8,3) a(37,3) a(32,3) a(0,10) a(35,21) a(17,2) a(28,1) a(11,9) a(1,20) a(35,12) a(31,9) a(12,9) a(10,7) a(32,4) a(13,12) a(30,2) a(23,1) a(31,10) a(18,6) a(19,13) a(15,19) a(18,8) a(10,8) a(1,2) a(15,17) a(22,14) a(23,11) a(23,0) a(16,6) a(4,5) a(29,11) a(0,4) a(6,6) a(31,8) a(31,20) a(30,12) a(23,18) a(36,4) a(20,17) a(16,3) a(16,2) a(24,21) a(25,15) a(14,5) a(38,8) a(3,5) a(29,3) a(18,13) a(32,9) a(29,18) a(8,17) a(14,0) a(25,2) a(1,10) a(32,16) a(27,17) a(12,13) a(20,10) a(31,5) a(12,15) a(26,19) a(32,7) a(27,16) a(5,20) a(19,12) a(19,15) a(18,10) a(6,18) a(29,6) a(21,19) a(27,12) a(37,12) a(27,0) a(23,5) a(5,17) a(23,21) a(35,5) a(30,1) a(28,10) a(0,19) a(30,7) a(36,1) a(1,21) a(22,7) a(19,3) a(0,7) a(31,18) a(25,14) a(8,20) a(26,16) a(26,13) a(33,11) a(6,15) a(19,5) a(8,11) a(0,20) a(16,10) a(24,16) a(5,6) a(0,0) a(28,7) a(22,2) a(11,21) a(29,12) a(14,9) a(23,6) a(3,1) a(1,13) a(23,2) a(22,10) a(22,21) a(11,8) a(37,6) a(9,12) a(28,18) a(0,8) a(15,13) a(3,14) a(18,2) a(18,9) a(38,9) a(24,3) a(20,12) a(3,6) a(28,2) a(15,20) a(15,1) a(3,9) a(34,5) a(20,8) a(32,2) a(8,14) a(15,8) a(21,15) a(16,17) a(2,16) a(11,2) a(38,7) a(2,20) a(4,11) a(26,3) a(5,12) a(33,19) a(22,12) a(22,16) a(20,6) a(33,10) a(38,3) a(18,7) a(32,14) a(19,4) a(21,12) a(34,4) a(11,10) a(32,18) a(17,6) a(7,1) a(25,17) a(35,6) a(34,14) a(14,11) a(21,6) a(9,19) a(5,11) a(28,0) a(15,7) a(24,2) a(11,5) a(25,5) a(28,14) a(12,19) a(17,13) a(7,13) a(2,12) a(31,1) a(3,13) a(24,15) a(37,20) a(9,9) a(15,11) a(25,13) a(17,19) a(37,0) a(7,2) a(14,10) a(24,12) a(33,1) a(1,16) a(33,9) a(2,5) a(1,3) a(10,4) a(4,4) a(32,0) a(4,7) a(10,12) a(0,2) a(16,12) a(16,16) a(28,4) a(37,17) a(5,2) a(21,8) a(5,10) a(23,14) a(33,3) a(19,10) a(10,6) a(7,12) a(1,0) a(37,8) a(38,17) a(36,12) a(35,3) a(35,11) a(13,13) a(1,12) a(24,11) a(17,18) a(13,18) a(7,0) a(24,14) a(32,19) a(33,15) a(38,21) a(29,5) a(0,14) a(9,20) a(37,7) a(12,3) a(32,5) a(6,12) a(34,19) a(31,16) a(22,20) a(31,11) a(8,16) a(34,0) a(2,18) a(15,16) a(33,17) a(2,9) a(29,0) a(7,3) a(35,17) a(27,18) a(11,15) a(9,16) a(21,1) a(30,16) a(17,4) a(2,7) a(13,16) a(4,17) a(23,20) a(36,9) a(18,15) a(33,13) a(16,19) a(27,9) a(17,5) a(4,10) a(38,1) a(25,12) a(2,17) a(4,19) a(26,2) a(30,18) a(33,7) a(12,11) a(33,16) a(28,8) a(9,11) a(17,1) a(19,2) a(2,6) a(34,21) a(23,13) a(15,4) a(34,18) a(3,3) a(34,6) a(12,2) a(6,8) a(25,7) a(0,15) a(36,3) a(35,0) a(27,14) a(7,8) a(5,5) a(26,5) a(1,8) a(18,16) a(19,16) a(31,17) a(15,5) a(19,6) a(25,20) a(6,10) a(19,21) a(21,11) a(33,6) a(26,14) a(11,4) a(13,6) a(29,16) a(33,0) a(2,2) a(13,10) a(23,12) a(21,13) a(12,20) a(7,20) a(16,7) a(24,13) a(13,0) a(0,6) a(6,11) a(8,19) a(25,3) a(37,15) a(36,20) a(22,3) a(6,17) a(27,4) a(37,18) a(25,9) a(26,0) a(38,15) a(30,13) a(30,20) a(37,5) a(14,1) a(22,17) a(16,21) a(6,13) a(33,18) a(16,8) a(7,9) a(10,11) a(33,5) a(17,9) a(2,10) a(24,10) a(3,15) a(38,11) a(4,1) a(27,20) a(28,9) a(13,9) a(0,11) a(25,0) a(21,9) a(35,19) a(29,14) a(34,2) a(37,10) a(23,17) a(4,0) a(22,18) a(36,10) a(13,20) a(16,9) a(27,2) a(18,19) a(31,12) a(34,9) a(8,2) a(5,21) a(26,9) a(4,15) a(24,0) a(11,1) a(7,7) a(34,1) a(36,5) a(10,9) a(31,14) a(32,21) a(22,0) a(6,9) a(14,18) a(21,18) a(20,7) a(9,3) a(22,6) a(28,12) a(10,5) a(27,5) a(32,6) a(0,3) a(29,19) a(3,18) a(35,13) a(4,2) a(0,12) a(28,11) a(36,0) a(18,5) a(38,20) a(8,4) a(37,16) a(10,18) a(11,13) a(28,13) a(2,14) a(6,0) a(25,18) a(6,3) a(6,21) a(21,10) a(6,7) a(8,7) a(35,15) a(27,3) a(30,11) a(6,16) a(7,16) a(3,17) a(20,13) a(10,2) a(35,2) a(17,0) a(11,20) a(18,1) a(2,19) a(0,13) a(28,19) a(20,3) a(37,1) a(20,11) a(19,17) a(11,14) a(30,5) a(31,7) a(34,20) a(35,1) a(6,2) a(38,4) a(13,15) a(30,10) a(5,4) a(9,0) a(35,20) a(24,5) a(9,2) a(32,8) a(13,4) a(15,3) a(37,4) a(7,6) a(15,6) a(6,1) a(19,8) a(36,21) a(0,21) a(38,14) a(33,21) a(34,12) a(23,3) a(31,2) a(30,3) a(11,6) a(22,8) a(3,2) a(25,6) a(15,18) a(37,19) a(21,3) a(15,2) a(10,13) a(24,17) a(22,1) a(30,0) a(14,2) a(13,19) a(10,1) a(23,16) a(16,18) a(13,2) a(2,15) a(17,8) a(2,13) a(4,6) a(17,17) a(5,18) a(1,17) a(33,20) a(14,21) a(12,7) a(18,17) a(13,17) a(25,1) a(24,18) a(19,1) a(28,5) a(6,5) a(8,5) a(20,21) a(8,21) a(31,6) a(22,4) a(6,19) a(3,19) a(22,9) a(35,4) a(15,10) a(32,11) a(18,20) a(8,6) a(25,16) a(16,20) a(7,4) a(15,0) a(12,10) a(8,15) a(3,21) a(31,0) a(35,9) a(37,13) a(28,17) a(37,11) a(5,1) a(23,15) a(2,1) a(14,7) a(7,21) a(35,14) a(4,20) a(1,19) a(33,8) a(5,13) a(34,7) a(24,7) a(11,18) a(8,8) a(9,18) a(9,10) a(21,16) a(26,18) a(27,10) a(9,8) a(28,6) a(36,8) a(0,5) a(30,21) a(19,19) a(30,9) a(2,4) a(10,10) a(8,9) a(20,2) a(12,17) a(9,1) a(20,20) a(17,11) a(9,15) a(27,21) a(38,6) a(4,12) a(36,6) a(1,5) a(17,10) a(7,5) a(9,6) a(38,19) a(29,4) a(4,13) a(9,17) a(20,5) a(24,1) a(21,7) a(14,15) a(0,17) a(38,13) a(6,4) a(26,15) a(36,11) a(6,14) a(29,9) a(29,20) a(31,13) a(5,9) a(34,11) a(10,15) a(21,2) a(15,21) a(38,18) a(3,0) a(4,3) a(26,4) a(33,2) a(7,14) a(14,13) a(9,21) a(35,16) a(4,18) a(20,9) a(25,21) a(29,8) a(11,0) a(27,13) a(20,4) a(5,19) a(17,15) a(14,4) a(10,20) a(14,6) a(12,0) a(3,8) 

End